Gurobi Optimizer version 9.1.2 build v9.1.2rc0 (linux64)
Thread count: 36 physical cores, 72 logical processors, using up to 32 threads
Optimize a model with 12 rows, 57 columns and 590 nonzeros
Model fingerprint: 0xf32eec78
Model has 47 quadratic constraints
Coefficient statistics:
  Matrix range     [2e-05, 3e+00]
  QMatrix range    [1e+00, 1e+00]
  QLMatrix range   [1e+00, 1e+00]
  Objective range  [8e-03, 7e-01]
  Bounds range     [1e+00, 1e+00]
  RHS range        [1e+00, 1e+00]
Presolve removed 9 rows and 0 columns

Continuous model is non-convex -- solving as a MIP.

Presolve removed 9 rows and 0 columns
Presolve time: 0.00s
Presolved: 189 rows, 57 columns, 443 nonzeros
Presolved model has 47 bilinear constraint(s)
Variable types: 57 continuous, 0 integer (0 binary)

Root relaxation: objective -1.743721e+00, 44 iterations, 0.00 seconds

    Nodes    |    Current Node    |     Objective Bounds      |     Work
 Expl Unexpl |  Obj  Depth IntInf | Incumbent    BestBd   Gap | It/Node Time

     0     0   -1.74372    0   38          -   -1.74372      -     -    0s
H    0     0                       0.6147548   -1.74372   384%     -    0s
     0     0   -1.64739    0    1    0.61475   -1.64739   368%     -    0s
H    0     0                      -1.6450460   -1.64739  0.14%     -    0s
     0     0     cutoff    0        -1.64505   -1.64505  0.00%     -    0s

Cutting planes:
  RLT: 25
  BQP: 3

Explored 1 nodes (76 simplex iterations) in 0.01 seconds
Thread count was 32 (of 72 available processors)

Solution count 2: -1.64505 0.614755 
No other solutions better than -1.64505

Optimal solution found (tolerance 1.00e-04)
Best objective -1.645045978473e+00, best bound -1.645045978473e+00, gap 0.0000%

User-callback calls 78, time in user-callback 0.00 sec
Gurobi Optimizer version 9.1.2 build v9.1.2rc0 (linux64)
Thread count: 36 physical cores, 72 logical processors, using up to 32 threads
Optimize a model with 24 rows, 125 columns and 2580 nonzeros
Model fingerprint: 0x29860ca6
Model has 105 quadratic constraints
Coefficient statistics:
  Matrix range     [7e-06, 5e+01]
  QMatrix range    [1e+00, 1e+00]
  QLMatrix range   [1e+00, 1e+00]
  Objective range  [1e-02, 1e+00]
  Bounds range     [1e+00, 1e+00]
  RHS range        [1e+00, 1e+00]
Presolve removed 10 rows and 0 columns

Continuous model is non-convex -- solving as a MIP.

Presolve removed 10 rows and 0 columns
Presolve time: 0.00s
Presolved: 429 rows, 125 columns, 2142 nonzeros
Presolved model has 105 bilinear constraint(s)
Variable types: 125 continuous, 0 integer (0 binary)

Root relaxation: objective -6.511022e+00, 151 iterations, 0.00 seconds

    Nodes    |    Current Node    |     Objective Bounds      |     Work
 Expl Unexpl |  Obj  Depth IntInf | Incumbent    BestBd   Gap | It/Node Time

     0     0   -6.51102    0   75          -   -6.51102      -     -    0s
H    0     0                       0.2265081   -6.51102  2975%     -    0s
     0     0   -4.92612    0   83    0.22651   -4.92612  2275%     -    0s
H    0     0                      -1.1169980   -4.92612   341%     -    0s
     0     0   -4.83358    0   70   -1.11700   -4.83358   333%     -    0s
     0     0   -4.62091    0   80   -1.11700   -4.62091   314%     -    0s
H    0     0                      -1.6981518   -4.62091   172%     -    0s
     0     0   -4.61140    0   80   -1.69815   -4.61140   172%     -    0s
     0     0   -4.58476    0   68   -1.69815   -4.58476   170%     -    0s
     0     0   -4.57991    0   61   -1.69815   -4.57991   170%     -    0s
     0     0   -4.57158    0   61   -1.69815   -4.57158   169%     -    0s
     0     0   -4.57072    0   61   -1.69815   -4.57072   169%     -    0s
     0     0   -4.57039    0   61   -1.69815   -4.57039   169%     -    0s
H    0     0                      -1.7522651   -4.57039   161%     -    0s
     0     0   -4.56977    0   61   -1.75227   -4.56977   161%     -    0s
     0     0   -4.56911    0   53   -1.75227   -4.56911   161%     -    0s
H    0     0                      -2.1165848   -4.56911   116%     -    0s
H    0     0                      -3.0985221   -4.56911  47.5%     -    0s
H    0     0                      -3.1004508   -4.56911  47.4%     -    0s
H    0     0                      -3.1035470   -4.56911  47.2%     -    0s
     0     2   -4.56911    0   53   -3.10355   -4.56911  47.2%     -    0s
*  599   572              22      -3.1080949   -4.06762  30.9%  29.9    0s
*  602   572              24      -3.1140408   -4.06762  30.6%  29.8    0s
*  736   666              27      -3.1150956   -4.06762  30.6%  27.0    0s
*  842   666              30      -3.4298827   -4.06762  18.6%  25.0    0s
*  850   666              28      -3.4388989   -4.06762  18.3%  25.0    0s
*  983   794              31      -3.7766592   -4.06762  7.70%  24.3    0s
* 1171   712              30      -3.7766609   -3.96787  5.06%  21.9    0s
* 1316   880              21      -3.8118402   -3.87139  1.56%  20.3    0s
* 1568   647              24      -3.8121552   -3.83701  0.65%  18.2    0s
* 1648   647              23      -3.8131442   -3.83513  0.58%  17.4    0s
* 1651   647              25      -3.8132944   -3.83513  0.57%  17.4    0s
* 1910   303              20      -3.8133173   -3.81379  0.01%  15.3    0s
* 1969   303              25      -3.8133192   -3.81336  0.00%  14.9    0s

Cutting planes:
  RLT: 55
  BQP: 7
  PSD: 54

Explored 2239 nodes (29718 simplex iterations) in 0.60 seconds
Thread count was 32 (of 72 available processors)

Solution count 10: -3.81332 -3.81332 -3.81329 ... -3.42988

Optimal solution found (tolerance 1.00e-04)
Best objective -3.813319234628e+00, best bound -3.813356823732e+00, gap 0.0010%

User-callback calls 4765, time in user-callback 0.00 sec



objective value: -3.8133192346280973
objective bound: -3.8133568237315703
x_opt: [1.0, 0.0, 1.0, 0.0, 0.21136343889292986, 0.0, 1.0, 1.0, 0.43821323243861426, 0.0, 0.0, 0.0, 0.8193235780224326, 0.0, 0.4560543713172852, 0.3253781178315976, 0.0, 0.0, 0.0, 0.0]
GUROBI solution time: 0.5994160175323486




